attachment/production/2-limits/production-limits.log
GLPSOL: GLPK LP/MIP Solver, v4.65
Parameter(s) specified in the command line:
 -m production-limits.mod -d production-limits.dat --log production-limits.log
Reading model section from production-limits.mod...
37 lines were read
Reading data section from production-limits.dat...
47 lines were read
Generating Material_Balance...
Generating Cons_Min_Usage...
Generating Cons_Min_Production...
Generating Cons_Max_Production...
Generating Total_Revenue...
Model has been successfully generated
GLPK Simplex Optimizer, v4.65
15 rows, 3 columns, 31 non-zeros
Preprocessing...
6 rows, 3 columns, 17 non-zeros
Scaling...
 A: min|aij| =  1.000e+00  max|aij| =  4.500e+03  ratio =  4.500e+03
GM: min|aij| =  4.317e-01  max|aij| =  2.317e+00  ratio =  5.367e+00
EQ: min|aij| =  1.863e-01  max|aij| =  1.000e+00  ratio =  5.367e+00
Constructing initial basis...
Size of triangular part is 6
      0: obj =   8.900000000e+03 inf =   1.041e+02 (2)
      3: obj =   3.192666667e+04 inf =   0.000e+00 (0)
*     4: obj =   3.297000000e+04 inf =   1.599e-14 (0)
OPTIMAL LP SOLUTION FOUND
Time used:   0.0 secs
Memory used: 0.1 Mb (134835 bytes)
Total Revenue: 32970
Production of P1: 90
Production of P2: 100
Production of P3: 10
Usage of A: 23000, remaining: -7.27596e-12
Usage of B: 21000, remaining: 10000
Usage of C: 433000, remaining: 17000
Usage of D: 200, remaining: 0
Model has been successfully processed
